NAME : TIC53-50-50-4.1938.tour
COMMENT : Length = 1938
COMMENT : Found by LKH [Keld Helsgaun] Tue Nov 22 15:14:06 2016
TYPE : TOUR
DIMENSION : 18
TOUR_SECTION
1
2
10
3
14
5
16
8
15
6
9
18
11
17
13
12
4
7
-1
EOF
